benchmarks_CP/INST_64x64/50/inst64x64_50_68.dzn
S=8;
start=[|
-1,	19,	-1,	62,	-1,	9,	-1,	18,	-1,	-1,	-1,	-1,	-1,	12,	-1,	-1,	37,	-1,	40,	-1,	58,	44,	5,	-1,	1,	-1,	-1,	-1,	34,	-1,	6,	55,	-1,	-1,	57,	64,	42,	43,	-1,	25,	-1,	45,	-1,	-1,	29,	-1,	-1,	-1,	30,	-1,	-1,	-1,	36,	-1,	-1,	32,	-1,	26,	59,	-1,	-1,	48,	60,	39|
-1,	-1,	38,	7,	-1,	34,	-1,	-1,	-1,	56,	36,	64,	3,	-1,	-1,	-1,	-1,	49,	-1,	-1,	14,	11,	-1,	-1,	-1,	12,	-1,	26,	59,	60,	23,	53,	-1,	63,	-1,	-1,	-1,	27,	-1,	-1,	25,	33,	-1,	44,	35,	-1,	-1,	48,	4,	52,	5,	57,	-1,	19,	6,	41,	8,	-1,	1,	37,	54,	9,	29,	-1|
56,	54,	63,	-1,	-1,	37,	-1,	52,	-1,	34,	-1,	42,	-1,	33,	7,	53,	48,	-1,	-1,	-1,	26,	57,	41,	24,	-1,	29,	-1,	-1,	61,	-1,	36,	5,	10,	9,	-1,	58,	-1,	17,	6,	-1,	60,	-1,	38,	-1,	-1,	20,	14,	-1,	45,	-1,	35,	-1,	-1,	8,	-1,	25,	-1,	-1,	18,	3,	30,	28,	27,	12|
-1,	47,	-1,	-1,	-1,	43,	-1,	-1,	59,	2,	54,	26,	50,	15,	11,	-1,	17,	60,	35,	-1,	-1,	38,	61,	45,	18,	-1,	-1,	-1,	-1,	20,	42,	-1,	52,	-1,	30,	53,	-1,	3,	-1,	-1,	64,	62,	-1,	-1,	-1,	37,	-1,	-1,	-1,	-1,	-1,	-1,	48,	-1,	14,	-1,	51,	-1,	55,	-1,	-1,	13,	33,	-1|
6,	48,	-1,	15,	30,	-1,	-1,	-1,	-1,	60,	45,	-1,	-1,	-1,	55,	49,	-1,	36,	63,	59,	-1,	1,	-1,	-1,	-1,	-1,	35,	62,	28,	-1,	-1,	-1,	-1,	2,	-1,	-1,	-1,	-1,	37,	-1,	7,	8,	39,	-1,	-1,	18,	-1,	40,	13,	17,	-1,	33,	34,	26,	-1,	42,	-1,	4,	19,	56,	20,	41,	-1,	-1|
3,	39,	59,	-1,	-1,	36,	-1,	-1,	5,	63,	-1,	-1,	28,	21,	-1,	48,	-1,	-1,	32,	-1,	-1,	-1,	8,	-1,	56,	37,	-1,	7,	-1,	-1,	25,	10,	-1,	-1,	49,	-1,	33,	-1,	-1,	-1,	50,	-1,	24,	-1,	9,	16,	34,	17,	11,	54,	31,	-1,	-1,	23,	20,	61,	-1,	62,	-1,	-1,	43,	35,	57,	58|
42,	-1,	-1,	5,	8,	-1,	2,	-1,	-1,	13,	62,	-1,	39,	41,	-1,	27,	-1,	43,	56,	-1,	-1,	-1,	34,	9,	-1,	17,	-1,	19,	-1,	-1,	-1,	-1,	36,	-1,	-1,	48,	-1,	11,	26,	35,	22,	-1,	58,	-1,	-1,	6,	15,	4,	44,	-1,	7,	-1,	-1,	-1,	-1,	-1,	45,	53,	63,	-1,	-1,	32,	-1,	61|
25,	-1,	-1,	-1,	-1,	32,	17,	27,	38,	-1,	57,	9,	-1,	-1,	29,	-1,	-1,	64,	-1,	-1,	-1,	-1,	22,	2,	-1,	48,	13,	46,	49,	-1,	15,	8,	-1,	54,	4,	59,	-1,	-1,	-1,	-1,	-1,	-1,	-1,	1,	26,	41,	-1,	5,	-1,	10,	-1,	-1,	43,	-1,	-1,	-1,	-1,	-1,	-1,	36,	-1,	-1,	40,	31|
-1,	53,	20,	-1,	40,	-1,	-1,	31,	-1,	-1,	-1,	-1,	45,	-1,	62,	-1,	-1,	-1,	55,	-1,	-1,	-1,	-1,	-1,	-1,	-1,	-1,	64,	43,	3,	-1,	-1,	41,	-1,	-1,	-1,	-1,	14,	1,	15,	-1,	-1,	-1,	-1,	-1,	36,	60,	16,	22,	-1,	-1,	-1,	-1,	24,	-1,	35,	26,	39,	-1,	-1,	29,	-1,	6,	-1|
-1,	-1,	23,	-1,	-1,	-1,	-1,	-1,	-1,	14,	59,	-1,	-1,	56,	46,	-1,	-1,	-1,	31,	-1,	2,	-1,	-1,	29,	-1,	62,	-1,	-1,	1,	-1,	-1,	17,	-1,	45,	44,	47,	6,	-1,	3,	52,	-1,	58,	-1,	-1,	-1,	12,	-1,	-1,	9,	-1,	-1,	-1,	7,	-1,	26,	60,	-1,	40,	-1,	34,	-1,	-1,	-1,	-1|
62,	64,	61,	-1,	-1,	52,	15,	21,	-1,	-1,	26,	-1,	-1,	30,	25,	-1,	39,	9,	-1,	-1,	-1,	49,	18,	-1,	34,	19,	-1,	-1,	-1,	12,	-1,	37,	60,	-1,	-1,	33,	17,	-1,	5,	-1,	-1,	53,	-1,	47,	54,	-1,	-1,	-1,	6,	38,	-1,	-1,	50,	4,	-1,	14,	42,	-1,	20,	59,	51,	10,	-1,	3|
35,	1,	46,	4,	56,	-1,	14,	60,	29,	-1,	-1,	-1,	42,	39,	-1,	-1,	24,	-1,	-1,	-1,	-1,	5,	63,	58,	61,	47,	-1,	-1,	20,	59,	57,	-1,	8,	10,	34,	49,	27,	-1,	21,	-1,	6,	32,	-1,	22,	3,	-1,	-1,	25,	64,	43,	51,	44,	-1,	-1,	-1,	-1,	-1,	17,	-1,	18,	50,	-1,	-1,	36|
39,	-1,	-1,	-1,	59,	-1,	-1,	3,	-1,	6,	53,	-1,	-1,	64,	-1,	38,	1,	25,	21,	-1,	-1,	26,	36,	-1,	28,	-1,	56,	8,	-1,	23,	-1,	35,	58,	55,	-1,	-1,	-1,	-1,	-1,	-1,	37,	17,	-1,	20,	-1,	-1,	-1,	43,	2,	57,	-1,	62,	46,	-1,	27,	13,	-1,	15,	24,	7,	-1,	45,	61,	60|
-1,	-1,	-1,	-1,	-1,	57,	18,	5,	-1,	4,	21,	11,	51,	48,	-1,	-1,	19,	-1,	-1,	-1,	-1,	10,	6,	-1,	33,	-1,	39,	60,	-1,	44,	-1,	24,	25,	-1,	-1,	29,	63,	-1,	-1,	-1,	-1,	-1,	59,	34,	-1,	40,	-1,	1,	3,	45,	30,	-1,	54,	-1,	42,	12,	-1,	13,	46,	52,	27,	23,	-1,	-1|
24,	-1,	11,	-1,	44,	-1,	-1,	30,	35,	-1,	-1,	-1,	-1,	-1,	3,	-1,	34,	7,	-1,	23,	-1,	-1,	64,	12,	5,	-1,	-1,	29,	14,	32,	22,	49,	62,	-1,	61,	-1,	19,	57,	-1,	-1,	26,	-1,	18,	-1,	27,	50,	-1,	-1,	31,	-1,	-1,	-1,	40,	-1,	-1,	-1,	54,	-1,	16,	-1,	21,	58,	28,	-1|
50,	-1,	9,	-1,	38,	55,	-1,	7,	54,	15,	8,	-1,	-1,	-1,	-1,	-1,	-1,	3,	14,	-1,	45,	-1,	42,	30,	-1,	-1,	-1,	-1,	26,	-1,	-1,	-1,	37,	40,	59,	-1,	51,	4,	43,	32,	-1,	28,	21,	-1,	-1,	-1,	64,	24,	-1,	-1,	-1,	29,	52,	18,	-1,	-1,	-1,	44,	-1,	-1,	-1,	12,	19,	-1|
-1,	-1,	7,	23,	6,	15,	-1,	37,	-1,	-1,	17,	-1,	13,	35,	-1,	-1,	-1,	32,	12,	24,	41,	64,	53,	22,	-1,	-1,	-1,	2,	-1,	51,	59,	39,	-1,	-1,	36,	-1,	54,	45,	-1,	14,	16,	-1,	-1,	-1,	60,	-1,	62,	58,	40,	28,	50,	34,	-1,	56,	61,	1,	-1,	-1,	-1,	-1,	-1,	-1,	-1,	55|
-1,	-1,	-1,	-1,	-1,	-1,	46,	39,	-1,	-1,	1,	14,	12,	-1,	64,	-1,	-1,	8,	-1,	-1,	38,	-1,	-1,	4,	-1,	30,	33,	-1,	54,	50,	60,	11,	-1,	17,	63,	7,	62,	-1,	16,	34,	44,	-1,	-1,	-1,	25,	-1,	23,	-1,	47,	3,	43,	-1,	-1,	-1,	19,	57,	-1,	-1,	22,	35,	-1,	15,	36,	48|
-1,	33,	55,	-1,	-1,	-1,	44,	-1,	25,	-1,	-1,	3,	-1,	-1,	27,	-1,	43,	5,	-1,	29,	56,	18,	58,	54,	-1,	-1,	1,	-1,	-1,	36,	12,	-1,	-1,	64,	42,	-1,	-1,	20,	47,	37,	28,	6,	34,	19,	-1,	-1,	24,	-1,	21,	35,	60,	26,	31,	-1,	-1,	63,	-1,	-1,	9,	-1,	-1,	52,	4,	14|
-1,	61,	58,	-1,	57,	-1,	-1,	35,	-1,	-1,	-1,	-1,	53,	4,	59,	9,	-1,	-1,	19,	-1,	25,	-1,	14,	-1,	-1,	8,	23,	-1,	48,	49,	-1,	-1,	-1,	-1,	6,	-1,	-1,	44,	39,	10,	1,	38,	-1,	-1,	36,	-1,	30,	2,	41,	33,	-1,	-1,	42,	-1,	12,	54,	-1,	-1,	-1,	62,	-1,	-1,	-1,	37|
-1,	-1,	2,	45,	14,	54,	-1,	4,	-1,	61,	-1,	-1,	29,	43,	-1,	15,	-1,	20,	-1,	7,	-1,	36,	-1,	-1,	55,	42,	6,	-1,	57,	19,	-1,	-1,	-1,	56,	-1,	30,	-1,	-1,	59,	-1,	-1,	-1,	-1,	37,	31,	-1,	-1,	-1,	8,	46,	64,	-1,	11,	17,	10,	49,	-1,	-1,	-1,	51,	-1,	34,	18,	-1|
22,	13,	-1,	-1,	21,	-1,	19,	47,	-1,	-1,	23,	-1,	-1,	-1,	6,	-1,	-1,	-1,	27,	-1,	-1,	16,	37,	-1,	15,	64,	-1,	-1,	-1,	-1,	-1,	-1,	-1,	-1,	60,	26,	-1,	41,	-1,	33,	-1,	-1,	3,	-1,	48,	51,	-1,	-1,	55,	14,	4,	-1,	62,	-1,	-1,	-1,	-1,	31,	39,	2,	32,	-1,	63,	-1|
63,	56,	3,	9,	18,	-1,	-1,	8,	-1,	-1,	19,	-1,	55,	-1,	16,	21,	62,	-1,	-1,	34,	-1,	-1,	-1,	15,	44,	32,	-1,	-1,	-1,	43,	53,	-1,	-1,	50,	51,	-1,	-1,	1,	-1,	12,	-1,	-1,	-1,	-1,	-1,	-1,	4,	-1,	36,	23,	-1,	-1,	-1,	-1,	13,	45,	-1,	-1,	-1,	17,	11,	47,	58,	28|
43,	17,	-1,	25,	20,	-1,	-1,	-1,	-1,	-1,	37,	-1,	11,	50,	-1,	-1,	42,	-1,	45,	-1,	61,	-1,	44,	-1,	14,	26,	-1,	-1,	-1,	31,	34,	-1,	23,	-1,	-1,	4,	-1,	-1,	-1,	-1,	-1,	-1,	-1,	46,	-1,	59,	-1,	-1,	-1,	-1,	9,	32,	-1,	-1,	-1,	16,	41,	19,	6,	-1,	1,	29,	3,	30|
18,	-1,	-1,	-1,	-1,	24,	49,	14,	26,	-1,	43,	-1,	25,	-1,	-1,	2,	54,	-1,	11,	21,	-1,	-1,	-1,	51,	-1,	6,	10,	45,	8,	34,	9,	50,	64,	-1,	-1,	-1,	60,	33,	31,	-1,	-1,	-1,	-1,	13,	-1,	1,	35,	-1,	-1,	5,	28,	38,	55,	62,	-1,	-1,	-1,	-1,	48,	16,	3,	-1,	15,	-1|
27,	-1,	-1,	56,	-1,	-1,	-1,	-1,	44,	-1,	-1,	-1,	48,	-1,	-1,	-1,	-1,	-1,	-1,	-1,	64,	-1,	9,	-1,	57,	23,	31,	61,	37,	46,	-1,	-1,	1,	43,	8,	-1,	-1,	-1,	-1,	50,	49,	16,	-1,	53,	5,	24,	22,	38,	-1,	4,	12,	20,	-1,	29,	36,	-1,	-1,	-1,	25,	-1,	-1,	21,	34,	-1|
31,	-1,	-1,	58,	-1,	17,	-1,	9,	28,	-1,	7,	-1,	-1,	-1,	-1,	-1,	-1,	56,	-1,	-1,	-1,	20,	-1,	33,	29,	-1,	21,	30,	41,	52,	-1,	-1,	-1,	-1,	-1,	54,	-1,	-1,	-1,	-1,	27,	26,	46,	50,	18,	62,	25,	34,	57,	11,	-1,	22,	-1,	-1,	64,	6,	47,	-1,	-1,	-1,	39,	-1,	49,	-1|
2,	-1,	60,	-1,	5,	-1,	-1,	29,	50,	-1,	-1,	27,	21,	47,	34,	-1,	-1,	-1,	-1,	-1,	32,	-1,	-1,	-1,	13,	-1,	49,	-1,	-1,	-1,	-1,	-1,	-1,	30,	39,	14,	16,	40,	-1,	6,	-1,	-1,	-1,	-1,	42,	-1,	10,	-1,	-1,	-1,	1,	-1,	15,	33,	48,	-1,	37,	-1,	-1,	-1,	-1,	38,	22,	9|
-1,	-1,	-1,	1,	62,	-1,	-1,	61,	-1,	-1,	-1,	-1,	63,	14,	5,	-1,	18,	31,	-1,	-1,	34,	6,	-1,	48,	32,	-1,	22,	54,	56,	28,	26,	64,	-1,	-1,	-1,	-1,	-1,	47,	-1,	38,	-1,	2,	-1,	-1,	7,	3,	-1,	15,	10,	41,	21,	8,	-1,	9,	-1,	52,	-1,	42,	4,	12,	59,	50,	-1,	-1|
48,	-1,	-1,	-1,	-1,	-1,	42,	-1,	-1,	41,	38,	-1,	1,	-1,	58,	-1,	25,	50,	-1,	-1,	55,	22,	62,	35,	-1,	-1,	60,	-1,	-1,	-1,	7,	-1,	-1,	-1,	13,	36,	10,	21,	46,	56,	51,	-1,	-1,	-1,	11,	-1,	59,	33,	-1,	30,	-1,	-1,	61,	34,	-1,	27,	5,	29,	-1,	63,	44,	2,	-1,	-1|
12,	11,	22,	28,	-1,	-1,	-1,	-1,	-1,	51,	-1,	52,	-1,	-1,	13,	-1,	-1,	-1,	4,	61,	-1,	-1,	47,	59,	-1,	5,	-1,	25,	58,	-1,	24,	-1,	7,	15,	-1,	2,	55,	-1,	-1,	18,	-1,	-1,	45,	48,	63,	-1,	-1,	-1,	-1,	32,	-1,	14,	-1,	-1,	3,	-1,	40,	10,	-1,	43,	41,	1,	54,	-1|
33,	41,	54,	3,	36,	20,	-1,	-1,	-1,	12,	-1,	-1,	-1,	23,	15,	11,	40,	1,	-1,	-1,	46,	-1,	-1,	42,	-1,	38,	27,	-1,	55,	48,	-1,	63,	-1,	-1,	-1,	-1,	29,	19,	-1,	51,	21,	-1,	-1,	43,	-1,	9,	17,	30,	18,	7,	47,	58,	-1,	50,	-1,	2,	-1,	45,	28,	-1,	31,	-1,	13,	-1|
-1,	-1,	-1,	-1,	31,	60,	20,	22,	-1,	40,	64,	49,	-1,	1,	-1,	-1,	15,	-1,	-1,	51,	17,	-1,	-1,	-1,	-1,	-1,	-1,	-1,	16,	55,	63,	-1,	-1,	-1,	-1,	42,	-1,	39,	50,	27,	-1,	47,	-1,	-1,	-1,	54,	5,	-1,	52,	-1,	-1,	-1,	28,	-1,	25,	-1,	9,	11,	-1,	41,	13,	44,	26,	59|
-1,	-1,	1,	-1,	-1,	-1,	26,	-1,	-1,	-1,	-1,	58,	-1,	-1,	-1,	-1,	-1,	-1,	-1,	-1,	29,	62,	43,	-1,	-1,	7,	11,	36,	60,	-1,	-1,	6,	-1,	3,	-1,	40,	-1,	-1,	-1,	-1,	-1,	-1,	20,	9,	-1,	-1,	-1,	27,	-1,	-1,	44,	-1,	33,	-1,	-1,	5,	25,	-1,	34,	61,	-1,	-1,	39,	32|
55,	37,	30,	52,	28,	-1,	38,	-1,	-1,	11,	-1,	-1,	8,	6,	35,	4,	2,	26,	-1,	36,	27,	33,	-1,	7,	54,	-1,	44,	-1,	19,	17,	64,	32,	43,	-1,	5,	23,	59,	13,	51,	62,	39,	-1,	-1,	-1,	-1,	21,	-1,	41,	58,	18,	-1,	-1,	-1,	53,	-1,	56,	49,	48,	47,	50,	14,	3,	24,	22|
-1,	-1,	29,	47,	-1,	-1,	23,	49,	-1,	-1,	27,	-1,	-1,	-1,	-1,	51,	10,	54,	-1,	-1,	37,	-1,	-1,	19,	-1,	-1,	53,	-1,	22,	-1,	3,	40,	46,	-1,	64,	52,	-1,	-1,	17,	36,	-1,	-1,	2,	18,	28,	4,	-1,	44,	-1,	-1,	-1,	-1,	41,	11,	-1,	7,	-1,	-1,	-1,	-1,	62,	-1,	5,	-1|
7,	50,	-1,	19,	61,	-1,	-1,	-1,	21,	-1,	9,	-1,	-1,	29,	45,	-1,	-1,	-1,	64,	-1,	-1,	-1,	57,	31,	27,	-1,	26,	34,	33,	62,	-1,	46,	-1,	20,	1,	-1,	2,	-1,	-1,	-1,	52,	-1,	11,	-1,	-1,	-1,	-1,	13,	-1,	-1,	-1,	36,	-1,	-1,	55,	30,	-1,	12,	-1,	-1,	-1,	6,	-1,	40|
-1,	9,	48,	-1,	-1,	41,	5,	11,	2,	44,	-1,	-1,	-1,	32,	-1,	3,	13,	-1,	-1,	20,	-1,	-1,	-1,	25,	35,	-1,	42,	43,	51,	37,	-1,	-1,	-1,	38,	53,	-1,	57,	-1,	12,	-1,	-1,	14,	22,	62,	-1,	34,	-1,	10,	63,	27,	-1,	19,	-1,	-1,	-1,	31,	-1,	23,	7,	-1,	-1,	-1,	55,	29|
-1,	15,	-1,	-1,	-1,	-1,	-1,	56,	-1,	-1,	-1,	62,	-1,	-1,	17,	-1,	60,	48,	-1,	-1,	22,	39,	-1,	-1,	-1,	-1,	-1,	10,	12,	5,	30,	-1,	9,	44,	37,	-1,	7,	-1,	-1,	49,	32,	19,	-1,	36,	40,	53,	-1,	-1,	-1,	-1,	-1,	-1,	16,	14,	46,	-1,	-1,	33,	-1,	-1,	-1,	4,	45,	-1|
-1,	-1,	27,	40,	42,	-1,	63,	-1,	-1,	-1,	60,	12,	30,	-1,	54,	43,	-1,	24,	47,	14,	5,	-1,	32,	34,	50,	-1,	-1,	-1,	-1,	-1,	-1,	48,	-1,	-1,	16,	-1,	58,	56,	-1,	-1,	-1,	-1,	35,	38,	17,	45,	-1,	26,	20,	62,	57,	-1,	-1,	64,	9,	-1,	-1,	-1,	37,	-1,	15,	19,	-1,	-1|
15,	26,	-1,	-1,	53,	-1,	-1,	-1,	7,	-1,	13,	-1,	-1,	9,	12,	-1,	55,	29,	-1,	46,	62,	30,	38,	-1,	8,	-1,	-1,	-1,	-1,	-1,	-1,	-1,	47,	-1,	-1,	3,	-1,	5,	-1,	-1,	40,	-1,	-1,	58,	33,	28,	-1,	-1,	-1,	-1,	14,	-1,	51,	-1,	2,	36,	59,	-1,	64,	-1,	23,	60,	42,	16|
16,	-1,	-1,	-1,	3,	29,	-1,	10,	-1,	30,	35,	56,	26,	49,	31,	-1,	-1,	-1,	-1,	32,	42,	8,	25,	-1,	22,	-1,	-1,	13,	64,	-1,	-1,	9,	39,	27,	21,	-1,	-1,	6,	15,	-1,	24,	-1,	62,	-1,	44,	19,	-1,	60,	-1,	34,	-1,	-1,	47,	-1,	41,	-1,	18,	-1,	-1,	20,	57,	-1,	-1,	50|
30,	4,	-1,	-1,	9,	5,	-1,	-1,	61,	-1,	39,	19,	34,	-1,	50,	-1,	-1,	-1,	54,	-1,	-1,	-1,	10,	64,	36,	-1,	2,	-1,	-1,	-1,	-1,	-1,	49,	41,	40,	-1,	-1,	-1,	52,	28,	17,	-1,	7,	-1,	-1,	23,	12,	-1,	1,	-1,	-1,	-1,	-1,	35,	-1,	55,	33,	-1,	13,	22,	6,	-1,	-1,	-1|
-1,	-1,	-1,	24,	-1,	-1,	37,	-1,	-1,	-1,	-1,	-1,	17,	-1,	14,	33,	-1,	39,	2,	3,	47,	-1,	52,	-1,	-1,	60,	51,	57,	-1,	6,	-1,	-1,	-1,	-1,	-1,	-1,	-1,	36,	-1,	-1,	41,	29,	15,	-1,	34,	-1,	-1,	54,	-1,	50,	-1,	-1,	-1,	-1,	-1,	-1,	-1,	49,	-1,	1,	53,	61,	12,	-1|
-1,	51,	-1,	35,	-1,	-1,	33,	-1,	1,	-1,	-1,	6,	-1,	-1,	-1,	64,	14,	57,	-1,	-1,	40,	-1,	19,	-1,	7,	18,	-1,	56,	-1,	39,	43,	-1,	-1,	32,	50,	-1,	12,	62,	60,	23,	30,	4,	16,	-1,	-1,	-1,	21,	36,	-1,	20,	25,	-1,	-1,	22,	31,	15,	-1,	-1,	-1,	26,	-1,	24,	-1,	2|
64,	36,	50,	41,	2,	-1,	-1,	19,	-1,	-1,	-1,	-1,	-1,	54,	-1,	57,	35,	53,	44,	18,	31,	-1,	-1,	-1,	-1,	-1,	52,	23,	-1,	29,	-1,	42,	-1,	-1,	56,	-1,	-1,	7,	-1,	-1,	-1,	-1,	-1,	14,	-1,	-1,	-1,	-1,	-1,	-1,	-1,	-1,	-1,	28,	43,	-1,	38,	8,	5,	-1,	-1,	-1,	-1,	-1|
-1,	21,	-1,	22,	-1,	18,	47,	-1,	-1,	3,	-1,	-1,	-1,	2,	38,	-1,	5,	-1,	-1,	-1,	23,	-1,	-1,	-1,	-1,	11,	48,	-1,	-1,	-1,	-1,	28,	-1,	59,	-1,	44,	-1,	46,	-1,	-1,	-1,	31,	-1,	25,	6,	-1,	-1,	42,	-1,	-1,	45,	-1,	12,	-1,	7,	29,	55,	-1,	-1,	-1,	-1,	-1,	30,	-1|
60,	6,	31,	38,	-1,	40,	-1,	-1,	23,	-1,	-1,	-1,	-1,	-1,	41,	29,	-1,	16,	48,	-1,	-1,	-1,	13,	36,	47,	-1,	59,	49,	-1,	15,	27,	14,	33,	-1,	-1,	-1,	-1,	64,	-1,	20,	-1,	-1,	10,	-1,	-1,	-1,	53,	-1,	-1,	-1,	-1,	-1,	-1,	-1,	44,	-1,	3,	28,	-1,	-1,	19,	25,	35,	-1|
-1,	52,	24,	33,	-1,	11,	-1,	6,	-1,	5,	41,	-1,	-1,	28,	32,	-1,	16,	-1,	-1,	-1,	12,	51,	-1,	40,	58,	-1,	-1,	-1,	-1,	-1,	56,	3,	-1,	-1,	-1,	27,	-1,	-1,	14,	-1,	13,	-1,	-1,	39,	-1,	35,	-1,	-1,	29,	44,	-1,	53,	-1,	-1,	-1,	-1,	4,	55,	-1,	-1,	48,	-1,	-1,	-1|
-1,	-1,	36,	13,	58,	35,	-1,	43,	3,	-1,	63,	30,	33,	-1,	-1,	-1,	8,	-1,	-1,	47,	28,	4,	56,	-1,	-1,	22,	-1,	-1,	39,	-1,	-1,	44,	6,	12,	46,	-1,	49,	48,	18,	-1,	-1,	9,	-1,	-1,	53,	-1,	-1,	50,	-1,	-1,	2,	-1,	1,	-1,	-1,	37,	-1,	64,	-1,	-1,	40,	-1,	-1,	20|
-1,	16,	-1,	39,	26,	-1,	62,	-1,	-1,	54,	25,	13,	7,	37,	-1,	-1,	29,	-1,	30,	-1,	43,	-1,	-1,	3,	-1,	9,	55,	11,	10,	-1,	-1,	-1,	44,	-1,	38,	-1,	45,	-1,	-1,	-1,	-1,	51,	63,	-1,	46,	-1,	41,	-1,	61,	-1,	-1,	-1,	-1,	-1,	-1,	-1,	53,	-1,	-1,	58,	35,	59,	1,	-1|
14,	-1,	18,	-1,	-1,	-1,	4,	-1,	47,	-1,	31,	48,	58,	-1,	22,	-1,	11,	-1,	-1,	17,	20,	32,	35,	-1,	-1,	-1,	-1,	5,	23,	-1,	-1,	-1,	-1,	26,	29,	55,	-1,	53,	-1,	3,	-1,	-1,	6,	-1,	-1,	2,	44,	-1,	-1,	12,	42,	-1,	-1,	21,	-1,	51,	19,	41,	-1,	13,	8,	-1,	37,	57|
46,	10,	-1,	-1,	29,	-1,	21,	-1,	53,	64,	-1,	-1,	27,	61,	1,	40,	33,	-1,	59,	50,	19,	54,	-1,	5,	-1,	-1,	-1,	31,	7,	24,	-1,	-1,	-1,	58,	-1,	-1,	-1,	-1,	57,	-1,	4,	-1,	8,	12,	-1,	60,	3,	55,	-1,	-1,	-1,	13,	18,	49,	-1,	38,	-1,	32,	-1,	6,	-1,	-1,	-1,	-1|
-1,	22,	-1,	-1,	-1,	53,	-1,	-1,	-1,	-1,	-1,	34,	38,	-1,	-1,	-1,	-1,	-1,	10,	25,	9,	2,	-1,	49,	-1,	59,	46,	41,	-1,	4,	-1,	-1,	13,	1,	20,	-1,	-1,	-1,	56,	24,	54,	-1,	-1,	-1,	62,	58,	-1,	14,	-1,	-1,	33,	-1,	-1,	60,	-1,	-1,	28,	47,	21,	-1,	-1,	30,	31,	51|
9,	-1,	25,	-1,	-1,	44,	51,	-1,	16,	35,	-1,	17,	56,	45,	39,	-1,	-1,	-1,	42,	-1,	18,	-1,	7,	-1,	49,	-1,	8,	32,	-1,	-1,	-1,	-1,	19,	-1,	54,	62,	11,	63,	4,	-1,	-1,	1,	-1,	28,	43,	-1,	27,	21,	50,	-1,	-1,	47,	-1,	-1,	-1,	3,	22,	46,	26,	60,	-1,	-1,	-1,	38|
17,	-1,	19,	-1,	50,	-1,	-1,	28,	4,	-1,	-1,	-1,	62,	-1,	-1,	55,	-1,	-1,	-1,	-1,	39,	-1,	-1,	-1,	-1,	-1,	-1,	53,	-1,	-1,	33,	21,	-1,	-1,	-1,	10,	40,	59,	-1,	5,	38,	-1,	64,	32,	-1,	48,	-1,	20,	24,	-1,	52,	11,	8,	63,	-1,	-1,	12,	54,	3,	-1,	9,	7,	-1,	25|
-1,	-1,	-1,	42,	23,	27,	-1,	33,	-1,	-1,	-1,	25,	-1,	-1,	-1,	-1,	-1,	21,	18,	8,	-1,	46,	45,	16,	62,	39,	32,	47,	-1,	26,	-1,	-1,	12,	-1,	-1,	5,	-1,	-1,	36,	54,	-1,	-1,	9,	17,	41,	44,	48,	-1,	-1,	-1,	-1,	-1,	-1,	-1,	-1,	59,	61,	14,	-1,	-1,	-1,	43,	-1,	10|
53,	-1,	-1,	-1,	25,	-1,	1,	17,	49,	-1,	-1,	-1,	41,	20,	48,	-1,	-1,	-1,	24,	54,	10,	9,	-1,	37,	-1,	-1,	-1,	-1,	-1,	7,	-1,	51,	-1,	42,	14,	8,	28,	22,	-1,	-1,	11,	55,	13,	-1,	45,	43,	-1,	-1,	12,	-1,	26,	-1,	27,	5,	-1,	46,	2,	57,	60,	19,	-1,	-1,	56,	-1|
49,	-1,	-1,	-1,	-1,	14,	22,	62,	15,	17,	3,	-1,	-1,	46,	-1,	12,	56,	55,	36,	28,	-1,	-1,	51,	32,	6,	-1,	-1,	4,	9,	1,	-1,	-1,	-1,	-1,	19,	-1,	-1,	61,	-1,	44,	42,	-1,	25,	10,	52,	38,	40,	53,	-1,	8,	-1,	-1,	64,	7,	-1,	-1,	16,	27,	-1,	33,	37,	31,	59,	-1|
26,	28,	-1,	10,	-1,	8,	-1,	2,	-1,	27,	44,	-1,	-1,	-1,	-1,	-1,	64,	-1,	29,	-1,	6,	-1,	17,	47,	23,	-1,	-1,	59,	11,	-1,	37,	36,	-1,	-1,	58,	-1,	48,	31,	9,	16,	18,	60,	61,	-1,	20,	33,	46,	-1,	14,	-1,	40,	-1,	4,	-1,	-1,	-1,	-1,	34,	32,	38,	-1,	22,	-1,	-1|
-1,	-1,	56,	-1,	-1,	31,	55,	44,	-1,	52,	-1,	7,	9,	16,	-1,	-1,	-1,	12,	-1,	-1,	-1,	-1,	20,	23,	-1,	-1,	40,	-1,	17,	-1,	-1,	13,	24,	-1,	41,	-1,	50,	38,	64,	-1,	-1,	21,	5,	6,	4,	26,	28,	-1,	37,	-1,	-1,	35,	-1,	-1,	33,	18,	-1,	-1,	53,	47,	49,	54,	46,	62|
37,	-1,	40,	29,	47,	46,	61,	-1,	63,	33,	-1,	53,	64,	-1,	-1,	5,	-1,	-1,	-1,	19,	-1,	43,	2,	39,	-1,	-1,	20,	28,	38,	35,	-1,	-1,	45,	-1,	-1,	57,	56,	-1,	27,	21,	14,	7,	51,	-1,	16,	-1,	-1,	-1,	23,	24,	-1,	41,	32,	-1,	22,	44,	11,	-1,	-1,	9,	55,	8,	50,	26|
4,	-1,	13,	21,	19,	-1,	64,	48,	62,	31,	-1,	8,	6,	-1,	60,	36,	-1,	-1,	-1,	-1,	-1,	7,	40,	-1,	-1,	-1,	12,	-1,	-1,	-1,	-1,	54,	-1,	-1,	-1,	-1,	43,	32,	-1,	11,	47,	22,	50,	3,	-1,	-1,	29,	56,	28,	15,	55,	-1,	9,	-1,	-1,	17,	-1,	-1,	51,	-1,	5,	-1,	-1,	-1|
54,	-1,	-1,	-1,	-1,	-1,	-1,	-1,	-1,	-1,	28,	22,	14,	11,	-1,	-1,	-1,	-1,	-1,	-1,	3,	58,	-1,	-1,	30,	-1,	-1,	55,	-1,	10,	5,	-1,	-1,	6,	33,	-1,	-1,	-1,	13,	-1,	-1,	23,	1,	-1,	2,	-1,	8,	32,	43,	29,	-1,	-1,	19,	20,	57,	50,	39,	35,	-1,	4,	-1,	-1,	-1,	21|];
