sudoku-ls/benchmarks_LEQ/INST_64x64/50/inst64x64_50_68.txt
8
1
41	-1	33	-1	4	9	-1	-1	17	8	61	-1	35	12	20	-1	-1	-1	40	52	-1	-1	-1	-1	-1	21	54	14	34	22	-1	55	-1	-1	-1	64	-1	-1	7	-1	3	45	-1	31	29	11	-1	-1	30	-1	-1	27	-1	-1	50	32	-1	26	-1	49	2	48	-1	-1
-1	40	38	-1	13	-1	-1	-1	-1	56	-1	-1	3	-1	24	31	51	49	15	39	-1	-1	-1	18	43	12	50	26	-1	-1	-1	-1	16	-1	62	-1	47	27	28	-1	-1	-1	-1	-1	35	-1	2	-1	-1	-1	-1	-1	-1	-1	6	41	-1	21	-1	-1	54	-1	-1	17
56	-1	63	-1	16	37	11	52	51	-1	32	-1	-1	-1	7	-1	48	4	62	-1	-1	-1	41	24	39	29	-1	-1	-1	2	36	5	-1	-1	15	-1	-1	-1	6	19	60	-1	38	55	13	20	14	-1	-1	-1	35	-1	21	-1	-1	25	-1	-1	18	3	30	-1	27	-1
29	-1	-1	-1	-1	-1	28	-1	59	-1	54	26	50	-1	11	44	-1	60	35	12	-1	38	61	45	18	27	16	58	32	20	-1	4	-1	24	-1	-1	34	3	8	-1	64	62	-1	-1	-1	37	-1	-1	39	56	-1	49	48	40	14	-1	51	-1	-1	10	-1	13	-1	5
6	48	10	15	30	22	58	64	-1	-1	-1	47	-1	-1	55	-1	-1	36	-1	59	-1	-1	29	-1	-1	44	-1	62	-1	9	11	-1	-1	2	-1	21	5	50	-1	-1	-1	8	39	-1	61	18	-1	-1	13	-1	53	-1	34	26	16	-1	-1	-1	-1	-1	-1	41	-1	46
3	39	59	55	51	-1	-1	26	5	63	-1	-1	28	-1	52	-1	-1	-1	-1	42	-1	19	8	-1	-1	37	64	7	45	-1	25	10	38	-1	-1	1	-1	-1	-1	-1	-1	27	-1	30	9	-1	34	17	-1	-1	31	-1	-1	23	-1	-1	-1	-1	44	14	43	35	57	58
-1	46	-1	5	8	-1	-1	-1	-1	-1	62	1	-1	41	40	-1	20	43	-1	30	16	25	-1	-1	51	-1	-1	-1	-1	-1	-1	31	-1	14	23	-1	18	-1	26	-1	22	-1	58	54	21	-1	-1	4	-1	-1	-1	55	-1	-1	29	28	-1	53	-1	64	24	32	47	61
-1	-1	44	-1	-1	-1	17	-1	38	-1	57	-1	-1	-1	-1	-1	50	64	-1	-1	-1	23	-1	-1	63	48	13	46	-1	-1	-1	8	-1	-1	-1	-1	20	55	-1	39	-1	-1	-1	1	-1	41	-1	5	51	-1	-1	18	43	-1	24	47	34	16	-1	36	7	-1	40	-1
-1	-1	20	-1	-1	33	12	31	27	-1	-1	-1	45	34	-1	-1	32	51	-1	-1	59	61	54	8	-1	-1	9	-1	43	-1	52	-1	-1	-1	28	-1	-1	14	1	-1	2	44	-1	-1	10	36	60	16	-1	-1	-1	48	-1	-1	21	35	26	-1	-1	11	29	-1	-1	-1
36	49	-1	8	54	16	-1	-1	20	14	59	-1	-1	-1	-1	24	-1	-1	-1	22	2	-1	-1	29	21	-1	-1	-1	-1	-1	-1	17	50	-1	-1	47	6	-1	-1	-1	15	-1	-1	-1	39	-1	-1	11	-1	25	37	-1	7	-1	-1	-1	32	-1	-1	34	4	55	-1	64
62	-1	-1	-1	-1	52	15	21	41	-1	26	-1	32	30	-1	63	39	-1	16	-1	-1	49	18	-1	34	19	-1	27	31	-1	-1	-1	-1	35	11	-1	17	-1	5	-1	-1	-1	-1	-1	-1	-1	-1	45	6	38	8	-1	-1	-1	58	-1	-1	-1	-1	-1	51	-1	-1	3
-1	-1	-1	4	56	26	14	-1	29	-1	12	-1	42	-1	2	13	-1	-1	-1	-1	-1	5	-1	58	61	-1	45	16	20	-1	57	30	8	10	-1	49	-1	-1	-1	53	-1	-1	48	-1	-1	-1	52	-1	-1	43	-1	-1	-1	-1	11	-1	62	17	-1	-1	-1	37	9	36
39	29	42	-1	59	47	-1	3	-1	6	-1	-1	-1	-1	49	38	1	25	21	11	48	-1	-1	50	28	-1	56	8	-1	23	-1	-1	-1	55	18	-1	31	16	-1	-1	37	17	-1	-1	-1	-1	-1	43	2	-1	-1	62	46	-1	27	13	-1	-1	24	-1	33	45	61	60
-1	58	-1	-1	32	57	18	-1	-1	4	-1	-1	-1	48	9	47	19	-1	20	62	53	-1	-1	43	-1	15	-1	-1	2	44	50	24	25	-1	-1	29	-1	26	38	64	56	35	-1	-1	-1	40	-1	-1	-1	45	-1	-1	-1	-1	42	12	-1	13	-1	52	27	23	8	-1
-1	-1	-1	37	-1	6	-1	30	-1	-1	-1	55	-1	-1	3	-1	34	7	-1	23	4	52	-1	-1	-1	51	-1	29	14	-1	-1	49	62	48	61	-1	19	-1	20	9	-1	41	18	42	27	-1	-1	-1	-1	-1	-1	-1	40	-1	-1	-1	54	-1	-1	-1	21	58	28	47
-1	25	9	-1	-1	55	-1	7	54	15	-1	-1	57	-1	61	-1	47	-1	-1	-1	-1	17	42	-1	11	-1	36	-1	-1	13	-1	41	-1	-1	-1	56	51	-1	43	32	-1	28	21	33	-1	-1	-1	-1	34	1	63	-1	52	-1	-1	-1	35	-1	-1	-1	-1	-1	19	-1
52	31	7	23	6	15	48	37	-1	-1	-1	63	-1	35	33	-1	-1	32	-1	-1	-1	-1	53	22	4	-1	-1	-1	-1	51	59	-1	-1	57	-1	-1	54	-1	-1	14	-1	-1	27	11	60	-1	-1	-1	40	-1	50	34	-1	-1	-1	1	-1	38	-1	-1	-1	-1	21	55
59	27	-1	-1	-1	49	46	39	42	-1	1	-1	12	52	64	45	-1	8	-1	6	38	-1	31	-1	40	-1	33	-1	-1	-1	-1	11	5	17	-1	7	-1	2	-1	34	-1	-1	56	-1	-1	32	-1	-1	-1	3	43	37	29	58	19	57	-1	24	-1	-1	-1	15	36	-1
-1	33	55	-1	11	-1	-1	-1	-1	-1	48	-1	-1	-1	27	-1	43	5	-1	-1	56	-1	-1	54	-1	41	-1	-1	-1	36	12	61	32	-1	42	46	53	20	47	37	28	6	34	19	8	17	-1	-1	21	35	-1	26	-1	51	-1	63	-1	-1	9	23	-1	52	-1	14
34	-1	-1	-1	57	-1	29	35	32	-1	5	24	-1	-1	59	-1	63	11	19	-1	-1	-1	14	-1	-1	-1	-1	3	-1	49	45	22	-1	31	6	-1	-1	-1	39	10	-1	38	55	-1	36	15	30	-1	-1	-1	-1	7	-1	-1	-1	-1	-1	-1	40	62	60	-1	64	37
1	-1	-1	45	14	-1	32	-1	40	61	47	41	29	43	-1	15	23	20	3	7	-1	36	-1	-1	-1	-1	6	63	-1	19	-1	62	-1	-1	48	30	-1	-1	59	-1	9	50	-1	-1	-1	-1	33	39	-1	-1	-1	25	-1	-1	-1	-1	-1	-1	12	-1	16	-1	18	-1
-1	-1	-1	-1	-1	42	-1	-1	36	-1	23	-1	49	8	6	-1	9	40	-1	35	-1	-1	-1	1	-1	64	-1	17	46	58	-1	56	29	-1	60	26	52	-1	-1	-1	-1	-1	3	-1	48	51	-1	61	-1	14	4	59	62	-1	38	24	-1	-1	-1	-1	32	53	63	54
-1	-1	-1	9	-1	10	-1	-1	31	-1	19	-1	-1	38	16	21	-1	-1	-1	-1	57	48	-1	15	-1	32	37	-1	24	-1	53	7	27	-1	-1	-1	22	1	-1	-1	-1	-1	41	-1	-1	29	-1	-1	36	23	-1	-1	-1	-1	13	45	-1	25	33	17	-1	-1	-1	-1
-1	17	64	25	20	62	36	24	58	39	37	51	-1	50	56	60	42	33	45	2	-1	21	-1	-1	-1	26	28	52	47	-1	-1	27	23	8	55	4	-1	15	49	-1	35	54	-1	-1	12	59	7	-1	53	-1	9	-1	5	-1	18	16	41	19	-1	-1	-1	-1	-1	-1
-1	57	4	46	-1	-1	-1	-1	-1	22	43	-1	25	-1	-1	2	-1	-1	11	21	-1	12	-1	51	53	-1	-1	45	-1	34	-1	-1	64	52	-1	-1	60	-1	31	-1	20	-1	-1	-1	-1	1	-1	-1	-1	-1	28	-1	-1	-1	37	39	58	7	48	-1	-1	-1	-1	-1
27	30	-1	56	-1	51	59	15	-1	-1	-1	-1	48	-1	-1	-1	-1	2	-1	41	64	28	-1	52	-1	-1	31	61	-1	-1	35	-1	-1	-1	8	-1	-1	-1	-1	50	49	-1	14	53	-1	-1	-1	38	-1	4	12	20	-1	29	-1	40	-1	60	25	32	26	21	-1	-1
31	43	-1	58	-1	-1	40	9	-1	16	7	32	-1	-1	53	-1	38	-1	-1	-1	60	20	15	33	-1	14	21	30	-1	-1	-1	-1	48	-1	-1	-1	-1	-1	-1	4	-1	-1	-1	50	-1	62	-1	34	-1	-1	13	-1	59	-1	-1	6	-1	-1	23	-1	-1	51	49	-1
2	55	-1	26	-1	-1	-1	29	50	-1	56	27	-1	-1	-1	-1	-1	-1	53	57	32	24	3	-1	-1	36	49	12	-1	-1	-1	20	-1	30	-1	14	-1	-1	-1	6	-1	64	54	41	42	52	-1	28	25	-1	-1	17	15	33	-1	-1	-1	-1	-1	-1	-1	38	-1	-1
23	44	45	1	62	-1	25	-1	46	-1	-1	60	63	-1	5	39	-1	-1	43	58	34	-1	-1	-1	-1	-1	22	54	56	28	-1	64	57	53	27	20	-1	-1	-1	-1	55	2	37	-1	-1	3	-1	-1	-1	41	-1	8	24	9	-1	52	30	42	-1	-1	59	-1	17	-1
-1	-1	6	-1	52	19	42	53	9	-1	38	-1	-1	-1	58	-1	-1	50	-1	37	-1	22	-1	35	-1	-1	60	39	-1	47	-1	-1	28	49	-1	36	-1	-1	46	56	51	40	-1	-1	-1	8	59	33	54	-1	-1	16	61	-1	45	27	-1	-1	14	63	-1	2	20	-1
-1	-1	-1	-1	37	21	-1	-1	64	51	33	52	36	62	-1	-1	49	27	4	61	30	29	47	59	-1	5	-1	-1	58	-1	-1	16	-1	15	-1	-1	55	34	44	-1	-1	39	45	48	63	-1	6	-1	-1	32	56	-1	-1	-1	-1	26	-1	10	8	-1	41	-1	-1	-1
-1	41	-1	3	36	-1	-1	34	-1	12	-1	37	-1	23	-1	-1	40	1	-1	10	-1	14	-1	-1	59	-1	27	-1	-1	48	62	-1	-1	-1	-1	-1	29	19	24	51	-1	-1	60	43	-1	-1	17	30	-1	7	-1	58	49	-1	35	-1	-1	45	28	-1	-1	57	-1	52
45	62	53	-1	-1	60	-1	-1	37	40	64	-1	10	-1	36	14	-1	-1	-1	-1	-1	3	30	56	2	-1	57	18	-1	-1	-1	-1	34	-1	-1	-1	-1	-1	50	-1	48	-1	-1	7	-1	54	5	6	52	-1	29	21	28	-1	25	-1	-1	11	-1	-1	-1	-1	26	59
10	24	-1	14	-1	-1	-1	59	-1	57	46	-1	-1	-1	23	56	53	-1	-1	-1	29	-1	43	38	31	7	11	36	60	-1	-1	6	-1	3	47	-1	15	-1	-1	-1	12	-1	20	-1	-1	-1	-1	27	49	51	-1	-1	33	-1	54	5	-1	18	34	-1	-1	63	39	-1
55	-1	-1	52	28	25	-1	46	-1	-1	-1	-1	-1	-1	-1	4	2	26	-1	36	27	33	-1	7	-1	-1	44	-1	19	-1	-1	32	43	-1	5	-1	-1	13	-1	-1	-1	-1	31	60	-1	21	-1	-1	-1	-1	10	-1	45	-1	40	56	49	-1	47	-1	-1	-1	-1	22
-1	8	-1	-1	-1	-1	23	49	39	-1	27	-1	31	-1	-1	-1	10	-1	58	-1	37	42	21	-1	-1	24	53	1	22	-1	3	40	-1	-1	64	-1	-1	-1	17	36	-1	15	-1	18	-1	4	-1	-1	35	-1	-1	-1	-1	-1	32	-1	-1	-1	56	-1	-1	16	-1	-1
-1	50	32	-1	-1	39	35	16	-1	-1	-1	59	5	-1	45	41	44	-1	-1	4	8	63	57	-1	27	-1	26	34	33	62	-1	-1	14	-1	1	22	2	-1	-1	-1	-1	-1	11	56	23	-1	51	13	15	37	-1	36	-1	-1	-1	30	17	-1	-1	-1	-1	6	53	40
58	-1	-1	36	-1	41	5	-1	-1	44	-1	-1	15	-1	28	-1	-1	18	-1	20	-1	40	-1	-1	-1	-1	-1	-1	-1	37	8	-1	4	-1	53	-1	-1	-1	12	-1	61	-1	-1	-1	-1	34	16	10	-1	27	17	19	-1	-1	60	-1	-1	23	7	54	46	-1	-1	29
-1	15	51	-1	-1	-1	54	-1	-1	24	-1	-1	47	18	17	-1	60	-1	-1	-1	-1	39	-1	61	-1	28	-1	-1	-1	-1	-1	-1	-1	-1	37	-1	-1	35	63	49	-1	-1	43	-1	40	53	42	-1	-1	-1	3	1	16	14	46	-1	57	-1	-1	-1	38	4	45	8
44	18	27	-1	42	3	-1	13	33	53	-1	12	30	-1	-1	-1	41	-1	47	14	-1	59	-1	34	50	52	-1	21	-1	61	39	48	-1	28	16	6	58	56	10	-1	-1	46	-1	38	-1	-1	49	26	20	62	-1	-1	22	64	-1	4	36	-1	37	31	15	-1	-1	-1
15	26	17	-1	-1	61	-1	32	7	18	13	45	52	9	12	-1	55	29	-1	-1	-1	30	-1	20	-1	-1	-1	-1	-1	-1	1	-1	47	-1	31	-1	-1	-1	-1	-1	40	11	-1	58	-1	28	-1	-1	27	-1	-1	-1	51	6	2	-1	-1	-1	64	44	-1	60	-1	-1
16	-1	-1	11	-1	-1	52	-1	-1	30	-1	56	-1	-1	31	-1	12	-1	-1	32	-1	8	-1	-1	-1	33	-1	13	64	54	-1	9	39	27	21	-1	1	-1	15	-1	-1	-1	62	-1	44	19	55	60	-1	-1	-1	-1	-1	-1	-1	-1	18	-1	-1	20	57	-1	-1	50
30	4	-1	-1	-1	5	57	-1	-1	-1	39	-1	34	27	50	58	21	-1	-1	43	-1	60	-1	64	36	31	-1	-1	53	25	-1	26	-1	-1	40	-1	14	-1	-1	-1	-1	-1	7	8	38	-1	12	3	1	48	-1	-1	-1	-1	-1	55	33	-1	-1	-1	6	-1	32	45
20	-1	43	-1	55	48	-1	25	-1	-1	40	44	-1	5	14	-1	59	39	2	-1	-1	56	-1	28	-1	-1	51	57	30	6	-1	45	-1	16	26	19	-1	36	-1	22	-1	29	-1	35	34	63	-1	-1	-1	50	-1	64	10	-1	8	23	-1	49	-1	-1	-1	-1	-1	4
13	-1	28	-1	46	45	-1	-1	-1	42	55	6	59	-1	8	64	14	-1	17	49	40	37	-1	11	-1	18	5	-1	-1	-1	-1	58	-1	32	50	34	12	-1	-1	23	30	4	16	27	-1	-1	21	-1	38	-1	-1	-1	-1	-1	31	15	-1	9	41	-1	10	24	48	2
64	-1	-1	-1	2	59	-1	-1	-1	-1	15	-1	-1	-1	-1	57	35	-1	-1	-1	-1	27	33	6	-1	10	-1	-1	-1	29	61	42	-1	51	-1	24	-1	-1	-1	63	-1	-1	-1	-1	-1	13	1	-1	16	-1	58	4	-1	-1	43	-1	38	-1	5	-1	-1	-1	11	-1
-1	-1	49	-1	-1	18	-1	-1	-1	-1	-1	-1	-1	2	38	-1	-1	-1	-1	1	23	50	4	41	-1	-1	48	-1	63	40	19	-1	-1	59	10	-1	-1	-1	35	57	-1	31	-1	25	-1	-1	-1	-1	33	60	-1	9	12	-1	7	29	-1	-1	-1	-1	56	14	-1	15
60	-1	31	38	-1	-1	34	1	-1	-1	22	43	4	-1	-1	-1	26	-1	48	9	-1	45	13	-1	47	-1	59	-1	-1	-1	27	14	-1	-1	-1	37	8	64	61	-1	-1	5	10	51	50	56	-1	52	-1	-1	54	-1	57	-1	-1	11	3	28	58	-1	19	-1	35	7
38	52	-1	33	60	11	7	6	-1	5	41	2	20	28	-1	26	16	-1	57	15	12	-1	46	-1	-1	-1	34	50	42	63	-1	3	-1	21	25	-1	64	-1	-1	8	13	-1	-1	-1	-1	-1	-1	-1	-1	-1	19	53	-1	54	-1	10	-1	55	49	-1	-1	17	23	18
5	34	-1	13	-1	35	41	43	-1	-1	-1	30	33	-1	57	23	8	-1	-1	47	-1	4	-1	-1	45	-1	-1	-1	39	-1	54	44	6	12	-1	-1	49	48	-1	7	-1	9	-1	16	53	-1	-1	-1	-1	55	-1	31	1	-1	-1	37	-1	-1	61	15	-1	11	-1	20
47	16	-1	39	26	-1	62	-1	12	54	25	-1	7	37	21	19	-1	6	30	-1	43	31	-1	-1	-1	-1	55	-1	10	-1	28	-1	-1	34	38	50	45	52	32	17	-1	-1	63	-1	46	49	41	-1	61	-1	-1	-1	14	-1	4	48	53	-1	2	-1	-1	59	1	-1
14	-1	-1	-1	49	-1	-1	54	-1	-1	-1	48	58	-1	-1	-1	-1	-1	1	17	20	32	35	-1	25	16	-1	-1	-1	38	-1	43	-1	-1	29	55	-1	-1	33	-1	10	-1	-1	24	15	-1	44	-1	46	-1	-1	45	56	-1	-1	-1	-1	41	-1	-1	8	-1	-1	57
46	10	37	20	-1	56	21	45	-1	64	11	15	-1	-1	-1	40	-1	63	59	-1	-1	-1	-1	-1	52	-1	-1	31	7	-1	17	47	22	58	35	28	41	51	-1	42	4	-1	8	-1	-1	-1	3	55	-1	-1	16	-1	18	49	-1	-1	-1	-1	36	-1	34	39	14	44
32	-1	-1	-1	48	53	3	-1	8	50	-1	34	-1	44	42	-1	61	-1	-1	-1	9	-1	26	-1	-1	-1	-1	41	-1	-1	-1	19	-1	1	20	-1	36	-1	56	24	54	-1	-1	-1	-1	-1	-1	-1	7	-1	33	43	-1	-1	-1	64	28	47	21	5	63	-1	31	-1
9	-1	25	-1	15	44	51	40	-1	-1	-1	17	-1	45	39	-1	58	-1	-1	53	-1	34	7	-1	49	13	8	-1	-1	-1	48	-1	-1	37	-1	62	-1	-1	4	-1	-1	-1	23	-1	-1	31	-1	21	50	6	-1	-1	20	-1	5	-1	22	-1	-1	-1	52	33	10	-1
17	-1	-1	-1	-1	-1	31	28	4	49	-1	46	62	-1	51	-1	-1	-1	-1	44	-1	-1	27	-1	-1	-1	-1	53	-1	57	-1	21	-1	47	-1	10	40	-1	-1	-1	38	18	64	32	56	-1	-1	-1	24	58	52	11	8	63	34	22	-1	54	-1	29	9	-1	16	-1
51	20	34	-1	23	-1	-1	33	-1	1	2	-1	40	24	19	-1	22	-1	18	8	-1	46	-1	16	62	39	-1	-1	50	26	58	-1	-1	7	3	5	4	49	36	-1	63	57	9	17	41	44	48	-1	56	53	11	-1	13	-1	30	-1	-1	-1	-1	-1	64	43	-1	10
53	-1	52	-1	-1	-1	-1	17	49	23	30	35	-1	-1	-1	61	4	-1	-1	-1	10	-1	50	37	-1	-1	15	33	-1	-1	-1	51	40	42	14	8	-1	22	-1	29	-1	-1	13	-1	45	43	58	-1	12	16	-1	39	-1	-1	47	-1	2	-1	60	-1	36	18	-1	-1
-1	-1	-1	-1	-1	14	-1	62	-1	-1	3	21	-1	-1	-1	-1	-1	55	-1	-1	11	13	-1	32	-1	-1	-1	-1	-1	-1	41	2	-1	60	-1	-1	26	61	-1	-1	-1	-1	-1	-1	52	-1	-1	-1	48	8	-1	-1	-1	7	-1	58	16	-1	-1	33	-1	31	59	23
26	28	-1	10	24	-1	-1	2	-1	-1	-1	-1	-1	51	-1	50	-1	-1	-1	-1	6	53	-1	47	23	45	19	-1	-1	-1	-1	36	55	-1	-1	63	-1	-1	9	-1	18	-1	61	49	20	-1	46	35	14	21	40	3	-1	-1	52	-1	-1	34	32	38	-1	-1	-1	41
11	59	-1	-1	-1	31	55	44	-1	-1	29	7	-1	16	-1	32	-1	-1	-1	-1	-1	-1	20	23	60	3	-1	22	-1	8	14	13	-1	-1	41	51	50	38	-1	1	36	21	-1	6	-1	26	-1	-1	-1	2	-1	35	-1	-1	33	18	48	58	53	47	-1	-1	-1	-1
-1	-1	-1	-1	-1	-1	-1	-1	-1	-1	58	-1	-1	13	-1	5	52	59	-1	-1	1	43	-1	39	48	-1	20	28	-1	-1	-1	18	45	62	17	-1	-1	10	-1	-1	-1	7	51	15	16	-1	-1	12	-1	24	6	41	32	31	22	-1	-1	3	42	9	-1	8	-1	26
-1	-1	13	21	-1	58	64	48	62	-1	-1	-1	6	-1	-1	36	-1	38	-1	-1	-1	7	40	14	-1	-1	-1	-1	27	16	44	-1	-1	-1	52	-1	-1	-1	53	-1	47	-1	50	-1	37	-1	29	56	-1	-1	-1	-1	-1	45	-1	-1	-1	-1	51	24	5	20	25	63
-1	12	16	-1	-1	63	9	-1	-1	38	-1	-1	14	-1	26	42	-1	61	-1	-1	3	-1	-1	62	30	53	-1	55	-1	10	-1	52	59	-1	33	-1	-1	37	13	47	34	-1	1	64	2	27	8	32	-1	29	-1	51	-1	20	-1	50	39	35	-1	4	-1	-1	-1	-1
64 
1 25 4 5
40 63 39 6
26 37 58 2
29 59 23 47
28 5 39 30
29 22 25 26
26 17 30 31
40 41 21 49
51 26 33 57
59 44 37 59
64 14 8 59
44 63 54 3
25 44 53 52
29 14 24 25
54 29 48 30
15 59 25 60
34 5 20 24
9 12 44 47
64 53 10 13
48 40 2 8
47 2 37 9
51 48 4 51
51 6 54 38
55 11 42 41
36 38 32 36
56 25 18 3
20 54 25 64
17 50 58 37
62 4 43 38
60 7 47 63
29 18 12 12
63 38 8 6
25 38 38 5
21 62 47 18
40 43 29 37
15 50 29 47
47 28 16 33
44 25 5 63
1 64 26 5
25 14 50 61
34 39 39 25
59 41 20 53
37 54 5 13
18 41 13 13
64 59 22 44
2 40 58 56
57 28 62 5
42 9 11 4
8 29 14 64
20 58 53 20
45 2 52 56
43 39 27 30
32 60 62 12
3 2 61 62
48 26 12 54
21 34 7 19
15 38 27 49
21 40 9 26
16 35 60 28
1 63 62 2
33 50 3 29
23 17 19 10
7 59 4 44
2 12 50 58
